p cnf 50 20
x 2 3 -4 -5 -6 -7 8 -12 -14 -18 21 -23 25 -28 30 33 34 35 -36 -38 40 -41 -42 -44 -47 -50 0
x 2 -5 7 10 13 14 15 16 -17 18 22 -24 -26 -30 37 39 40 42 -43 45 50 0
x 3 6 -7 -8 9 11 -12 -13 -14 15 18 -19 -20 21 -23 29 31 32 33 -34 -35 -37 42 -43 -46 47 49 50 0
x -1 -2 -6 -7 9 13 -14 -15 -16 -17 26 28 32 35 -36 -37 39 41 42 43 47 0
x -10 -12 14 15 -16 17 19 -20 24 -26 30 -34 -38 40 41 -42 -43 47 0
x 1 2 6 7 11 -12 13 14 -16 17 -18 -20 -21 -22 -23 24 25 -26 27 28 -29 -32 35 -37 -38 -40 41 44 45 -46 48 -50 0
x 2 -5 -6 7 9 -15 17 19 -20 21 -22 23 -24 -25 27 30 33 35 36 -37 -39 -41 44 -46 47 -48 50 0
x -1 -2 3 -4 -5 -6 -7 8 -9 10 -12 15 -17 19 20 21 23 31 -35 41 42 44 45 -47 -49 0
x 4 5 8 9 13 16 19 -23 -25 -26 -28 -30 -31 -34 36 42 -43 45 -47 48 49 0
x -2 -3 -5 8 -9 10 -11 12 -14 15 -18 -19 21 -33 34 -35 -37 -38 -39 -46 -47 -49 50 0
x -1 -3 5 -6 -13 16 18 19 21 -23 24 -26 28 29 30 32 -33 34 35 -38 -40 -42 -43 -47 -49 0
x 1 2 3 4 -6 8 -9 -10 11 -12 -13 15 17 19 -20 -24 -25 -29 -31 -38 -39 -42 -43 -44 -46 -48 -50 0
x 3 -7 8 10 -11 13 -15 -18 -20 21 22 -24 26 -27 -29 -30 -31 32 -35 36 37 38 39 -42 -43 44 45 -46 49 50 0
x -1 2 3 -4 5 -6 7 9 11 -14 18 19 20 21 22 -24 -27 28 29 31 33 -34 36 39 -40 42 43 45 47 0
x -1 5 -7 -11 -13 -14 16 -18 -21 24 -26 28 -29 -33 35 -36 40 -47 48 49 -50 0
x 1 4 6 -9 -12 -13 15 -17 -18 20 22 -24 27 28 -30 -32 -34 -35 -38 -39 -40 -41 42 -43 44 -46 48 50 0
x -1 -3 8 -9 -11 -12 13 -14 17 18 19 -21 22 -25 -26 32 35 -36 37 -41 -43 -44 45 -46 49 0
x 1 -3 4 -5 -7 -8 9 -11 -18 19 21 -22 -23 26 -28 30 -32 33 34 -35 38 -40 -45 46 -50 0
x -2 3 5 6 8 -12 -13 -14 -15 17 -19 24 -27 29 34 -36 -37 -42 -43 44 46 -47 -48 50 0
x -2 3 6 8 -12 13 -14 -15 -16 19 21 22 -23 24 -25 -28 34 -35 36 -37 -38 39 40 -42 -43 44 46 -48 49 50 0
g -10